# 1 amount of Vehicles
param nv :=
6 ;

# 2 amount of Orders
param no :=
10 ;

# 3 amount of locations
param nl :=
7 ;

# 4 amount of factories
param nf :=
3 ;

# 5 factory sets
set N_f_2[1] :=  4 ;
set N_f_2[2] :=  5 7 ;
set N_f_2[3] :=  6 ;

# 6 factory stop capacities
param H :=
1 1
2 1
3 1 ;

# 7 pickup locations for each order
param L_pd :=
1 2
2 3
3 1
4 3
5 2
6 3
7 2
8 1
9 2
10 2 ;

# 8 delivery locations for each order
param L_dd :=
1 5
2 6
3 7
4 4
5 7
6 4
7 7
8 4
9 7
10 6 ;

# 9 location sets
set L_2[1] :=  3 8 ;
set L_2[2] :=  1 5 7 9 10 ;
set L_2[3] :=  2 4 6 ;
set L_2[4] :=  4 6 8 ;
set L_2[5] :=  1 ;
set L_2[6] :=  2 10 ;
set L_2[7] :=  3 5 7 9 ;

# 10 order weights
param Q_kg_2 :=
1 173.86714671739222
2 1896.0554794128357
3 683.1981361627252
4 1974.790525710735
5 334.01824248356814
6 265.33944309519376
7 1735.2548483360847
8 1887.0460529319769
9 1795.2992689328373
10 8692.059579859528 ;

# 11 order volumes
param Q_vol_2 :=
1 0.5713425670016437
2 15.320565216818798
3 18.249495707588395
4 23.394261693800573
5 2.9146583647705837
6 1.7470040002877905
7 5.228487826310079
8 24.214191265026653
9 11.9903913267525
10 82.66176964044735 ;

# 12 Locations vehicle can visit
set N_v_2[1] := 1 2 3 4 5 6 7 ;
set N_v_2[2] := 1 2 3 4 5 6 7 ;
set N_v_2[3] := 1 2 3 4 5 6 7 ;
set N_v_2[4] := 1 2 3 4 5 6 7 ;
set N_v_2[5] := 1 2 3 4 5 6 7 ;
set N_v_2[6] := 1 2 3 4 5 6 7 ;

# 13 Orders vehicles can pick up
set N_vp_2[1] := 1 2 3 5 6 7 8 9 ;
set N_vp_2[2] := 1 2 3 5 6 7 8 9 ;
set N_vp_2[3] := 1 2 3 4 5 6 7 8 9 ;
set N_vp_2[4] := 1 2 3 4 5 6 7 8 9 ;
set N_vp_2[5] := 1 2 3 4 5 6 7 8 9 10 ;
set N_vp_2[6] := 1 2 3 4 5 6 7 8 9 10 ;

# 14 vehicle weight capacity
param K_kg :=
1 12000.0
2 12000.0
3 18000.0
4 18000.0
5 24000.0
6 24000.0 ;

# 15 vehicle volume capacity
param K_vol :=
1 55.0
2 55.0
3 71.0
4 71.0
5 102.0
6 102.0 ;

# 16 amount of distance intervals
param na :=
1 2
2 2
3 2
4 2
5 2
6 2 ;

# 17 amount of weight intervals
param nb :=
1 2
2 2
3 3
4 3
5 3
6 3 ;

# 18 Distance intervals
param B_2 :=
1 1 1500.0
1 2 9999999.0
2 1 1500.0
2 2 9999999.0
3 1 1500.0
3 2 9999999.0
4 1 1500.0
4 2 9999999.0
5 1 1500.0
5 2 9999999.0
6 1 1500.0
6 2 9999999.0 ;

# 19 Weight intervals
param Z_2 :=
1 1 1500.0
1 2 24000.0
1 3 . 
2 1 1500.0
2 2 24000.0
2 3 . 
3 1 700.0
3 2 3000.0
3 3 24000.0
4 1 700.0
4 2 3000.0
4 3 24000.0
5 1 700.0
5 2 3000.0
5 3 24000.0
6 1 700.0
6 2 3000.0
6 3 24000.0 ;

# 20 cost per kilometer
param C_km :=
1 1 1 0.11574494469165798
1 1 2 0.3723393221028571
1 1 3 . 
1 2 1 0.07716329646110535
1 2 2 0.2482262147352381
1 2 3 . 
2 1 1 0.11574494469165798
2 1 2 0.3723393221028571
2 1 3 . 
2 2 1 0.07716329646110535
2 2 2 0.2482262147352381
2 2 3 . 
3 1 1 0.09622650146484377
3 1 2 0.18318747431342491
3 1 3 0.43439587578666683
3 2 1 0.060485229492187494
3 2 2 0.11514641242558135
3 2 3 0.2730488362087619
4 1 1 0.09622650146484377
4 1 2 0.18318747431342491
4 1 3 0.43439587578666683
4 2 1 0.060485229492187494
4 2 2 0.11514641242558135
4 2 3 0.2730488362087619
5 1 1 0.10997314453125002
5 1 2 0.20935711350105707
5 1 3 0.4964524294704762
5 2 1 0.06873321533203125
5 2 2 0.13084819593816063
5 2 3 0.3102827684190475
6 1 1 0.10997314453125002
6 1 2 0.20935711350105707
6 1 3 0.4964524294704762
6 2 1 0.06873321533203125
6 2 2 0.13084819593816063
6 2 3 0.3102827684190475 ;

# 21 cost per kilo
param C_kg :=
1 1 1 0.004564315080642704
1 1 2 8.114541859150757E-4
1 1 3 . 
1 2 1 0.0018257260322570804
1 2 2 3.245816743660299E-4
1 2 3 . 
2 1 1 0.004564315080642704
2 1 2 8.114541859150757E-4
2 1 3 . 
2 2 1 0.0018257260322570804
2 2 2 3.245816743660299E-4
2 2 3 . 
3 1 1 0.0070495605468750035
3 1 2 0.0030595174524933127
3 1 3 8.114541859150757E-4
3 2 1 0.0028198242187500006
3 2 2 0.0012238069809973242
3 2 3 3.245816743660299E-4
4 1 1 0.0070495605468750035
4 1 2 0.0030595174524933127
4 1 3 8.114541859150757E-4
4 2 1 0.0028198242187500006
4 2 2 0.0012238069809973242
4 2 3 3.245816743660299E-4
5 1 1 0.0070495605468750035
5 1 2 0.0030595174524933127
5 1 3 8.114541859150757E-4
5 2 1 0.0028198242187500006
5 2 2 0.0012238069809973242
5 2 3 3.245816743660299E-4
6 1 1 0.0070495605468750035
6 1 2 0.0030595174524933127
6 1 3 8.114541859150757E-4
6 2 1 0.0028198242187500006
6 2 2 0.0012238069809973242
6 2 3 3.245816743660299E-4 ;

# 22 fixed costs
param C_fix :=
1 1 1 136.6875
1 1 2 764.94375
1 1 3 . 
1 2 1 1037.970703125
1 2 2 5808.7916015625
1 2 3 . 
2 1 1 136.6875
2 1 2 764.94375
2 1 3 . 
2 2 1 1037.970703125
2 2 2 5808.7916015625
2 2 3 . 
3 1 1 100.68095232000002
3 1 2 236.89635840000005
3 1 3 894.8759938560002
3 2 1 930.1870876292295
3 2 2 2188.6755003040694
3 2 3 8267.721702398621
4 1 1 100.68095232000002
4 1 2 236.89635840000005
4 1 3 894.8759938560002
4 2 1 930.1870876292295
4 2 2 2188.6755003040694
4 2 3 8267.721702398621
5 1 1 122.97711871999996
5 1 2 289.35792639999994
5 1 3 1093.0495669759996
5 2 1 1458.9605667660978
5 2 2 3432.848392390819
5 2 3 12967.584802256317
6 1 1 122.97711871999996
6 1 2 289.35792639999994
6 1 3 1093.0495669759996
6 2 1 1458.9605667660978
6 2 2 3432.848392390819
6 2 3 12967.584802256317 ;

# 23 stopping costs
param C_stop_2 :=
1 1 21.0
1 2 27.0
1 3 23.0
1 4 26.0
1 5 20.0
1 6 28.0
1 7 26.0
2 1 21.0
2 2 27.0
2 3 23.0
2 4 26.0
2 5 20.0
2 6 28.0
2 7 26.0
3 1 31.5
3 2 40.5
3 3 34.5
3 4 39.0
3 5 30.0
3 6 42.0
3 7 39.0
4 1 31.5
4 2 40.5
4 3 34.5
4 4 39.0
4 5 30.0
4 6 42.0
4 7 39.0
5 1 42.0
5 2 54.0
5 3 46.0
5 4 52.0
5 5 40.0
5 6 56.0
5 7 52.0
6 1 42.0
6 2 54.0
6 3 46.0
6 4 52.0
6 5 40.0
6 6 56.0
6 7 52.0 ;

# 24 cost of no transport
param C_2 :=
1 35950.252301889224
2 58571.95908972883
3 59735.88596210518
4 74253.71499787239
5 39789.92852482246
6 35511.946478204205
7 56116.12404488712
8 67762.53593143233
9 63478.471751297075
10 196651.48843981154 ;

# 25 timewindow amounts at location
param pi_2 :=
1 3
2 4
3 4
4 4
5 4
6 3
7 3 ;

# 26 timewindow lower bounds
param T_l_2 :=
1 1 60.0
1 2 1500.0
1 3 2940.0
1 4 . 
2 1 60.0
2 2 360.0
2 3 1500.0
2 4 1860.0
3 1 60.0
3 2 360.0
3 3 1500.0
3 4 1740.0
4 1 120.0
4 2 1560.0
4 3 3000.0
4 4 4440.0
5 1 0.0
5 2 360.0
5 3 1440.0
5 4 1800.0
6 1 0.0
6 2 420.0
6 3 1440.0
6 4 . 
7 1 0.0
7 2 420.0
7 3 1440.0
7 4 . ;

# 27 timewindow upper bounds
param T_u_2 :=
1 1 300.0
1 2 1740.0
1 3 3180.0
1 4 . 
2 1 300.0
2 2 660.0
2 3 1740.0
2 4 2160.0
3 1 240.0
3 2 540.0
3 3 1680.0
3 4 1920.0
4 1 420.0
4 2 1860.0
4 3 3300.0
4 4 4740.0
5 1 240.0
5 2 600.0
5 3 1680.0
5 4 2040.0
6 1 300.0
6 2 720.0
6 3 1740.0
6 4 . 
7 1 300.0
7 2 720.0
7 3 1740.0
7 4 . ;

# 28 Travel time
param T_2 :=
1 1 1 . 
1 1 2 275.1085555417253
1 1 3 169.94325684697918
1 1 4 86.9647356180985
1 1 5 330.66171166194397
1 1 6 161.39309243440164
1 1 7 271.24014821482564
1 2 1 275.1085555417253
1 2 2 . 
1 2 3 213.11501923459
1 2 4 318.00487007853314
1 2 5 262.3373044618942
1 2 6 140.81871667948178
1 2 7 279.58479558693665
1 3 1 169.94325684697918
1 3 2 213.11501923459
1 3 3 . 
1 3 4 238.1924674494079
1 3 5 409.3291803294583
1 3 6 91.51398464636131
1 3 7 354.86917696247156
1 4 1 86.9647356180985
1 4 2 318.00487007853314
1 4 3 238.1924674494079
1 4 4 . 
1 4 5 238.8195097251724
1 4 6 175.38196722199115
1 4 7 184.52593466107595
1 5 1 330.66171166194397
1 5 2 262.3373044618942
1 5 3 409.3291803294583
1 5 4 238.8195097251724
1 5 5 . 
1 5 6 281.32121181296475
1 5 7 2.5
1 6 1 161.39309243440164
1 6 2 140.81871667948178
1 6 3 91.51398464636131
1 6 4 175.38196722199115
1 6 5 281.32121181296475
1 6 6 . 
1 6 7 315.92000762970486
1 7 1 271.24014821482564
1 7 2 279.58479558693665
1 7 3 354.86917696247156
1 7 4 184.52593466107595
1 7 5 2.5
1 7 6 315.92000762970486
1 7 7 . 
2 1 1 . 
2 1 2 275.1085555417253
2 1 3 169.94325684697918
2 1 4 86.9647356180985
2 1 5 330.66171166194397
2 1 6 161.39309243440164
2 1 7 271.24014821482564
2 2 1 275.1085555417253
2 2 2 . 
2 2 3 213.11501923459
2 2 4 318.00487007853314
2 2 5 262.3373044618942
2 2 6 140.81871667948178
2 2 7 279.58479558693665
2 3 1 169.94325684697918
2 3 2 213.11501923459
2 3 3 . 
2 3 4 238.1924674494079
2 3 5 409.3291803294583
2 3 6 91.51398464636131
2 3 7 354.86917696247156
2 4 1 86.9647356180985
2 4 2 318.00487007853314
2 4 3 238.1924674494079
2 4 4 . 
2 4 5 238.8195097251724
2 4 6 175.38196722199115
2 4 7 184.52593466107595
2 5 1 330.66171166194397
2 5 2 262.3373044618942
2 5 3 409.3291803294583
2 5 4 238.8195097251724
2 5 5 . 
2 5 6 281.32121181296475
2 5 7 2.5
2 6 1 161.39309243440164
2 6 2 140.81871667948178
2 6 3 91.51398464636131
2 6 4 175.38196722199115
2 6 5 281.32121181296475
2 6 6 . 
2 6 7 315.92000762970486
2 7 1 271.24014821482564
2 7 2 279.58479558693665
2 7 3 354.86917696247156
2 7 4 184.52593466107595
2 7 5 2.5
2 7 6 315.92000762970486
2 7 7 . 
3 1 1 . 
3 1 2 281.9862694302684
3 1 3 174.19183826815365
3 1 4 89.13885400855095
3 1 5 338.9282544534925
3 1 6 165.42791974526168
3 1 7 278.02115192019625
3 2 1 281.9862694302684
3 2 2 . 
3 2 3 218.4428947154547
3 2 4 325.95499183049645
3 2 5 268.8957370734415
3 2 6 144.3391845964688
3 2 7 286.57441547661006
3 3 1 174.19183826815365
3 3 2 218.4428947154547
3 3 3 . 
3 3 4 244.1472791356431
3 3 5 419.56240983769476
3 3 6 93.80183426252033
3 3 7 363.7409063865333
3 4 1 89.13885400855095
3 4 2 325.95499183049645
3 4 3 244.1472791356431
3 4 4 . 
3 4 5 244.7899974683017
3 4 6 179.7665164025409
3 4 7 189.13908302760282
3 5 1 338.9282544534925
3 5 2 268.8957370734415
3 5 3 419.56240983769476
3 5 4 244.7899974683017
3 5 5 . 
3 5 6 288.3542421082888
3 5 7 2.5625
3 6 1 165.42791974526168
3 6 2 144.3391845964688
3 6 3 93.80183426252033
3 6 4 179.7665164025409
3 6 5 288.3542421082888
3 6 6 . 
3 6 7 323.81800782044746
3 7 1 278.02115192019625
3 7 2 286.57441547661006
3 7 3 363.7409063865333
3 7 4 189.13908302760282
3 7 5 2.5625
3 7 6 323.81800782044746
3 7 7 . 
4 1 1 . 
4 1 2 281.9862694302684
4 1 3 174.19183826815365
4 1 4 89.13885400855095
4 1 5 338.9282544534925
4 1 6 165.42791974526168
4 1 7 278.02115192019625
4 2 1 281.9862694302684
4 2 2 . 
4 2 3 218.4428947154547
4 2 4 325.95499183049645
4 2 5 268.8957370734415
4 2 6 144.3391845964688
4 2 7 286.57441547661006
4 3 1 174.19183826815365
4 3 2 218.4428947154547
4 3 3 . 
4 3 4 244.1472791356431
4 3 5 419.56240983769476
4 3 6 93.80183426252033
4 3 7 363.7409063865333
4 4 1 89.13885400855095
4 4 2 325.95499183049645
4 4 3 244.1472791356431
4 4 4 . 
4 4 5 244.7899974683017
4 4 6 179.7665164025409
4 4 7 189.13908302760282
4 5 1 338.9282544534925
4 5 2 268.8957370734415
4 5 3 419.56240983769476
4 5 4 244.7899974683017
4 5 5 . 
4 5 6 288.3542421082888
4 5 7 2.5625
4 6 1 165.42791974526168
4 6 2 144.3391845964688
4 6 3 93.80183426252033
4 6 4 179.7665164025409
4 6 5 288.3542421082888
4 6 6 . 
4 6 7 323.81800782044746
4 7 1 278.02115192019625
4 7 2 286.57441547661006
4 7 3 363.7409063865333
4 7 4 189.13908302760282
4 7 5 2.5625
4 7 6 323.81800782044746
4 7 7 . 
5 1 1 . 
5 1 2 288.86398331881156
5 1 3 178.44041968932814
5 1 4 91.31297239900343
5 1 5 347.1947972450412
5 1 6 169.4627470561217
5 1 7 284.8021556255669
5 2 1 288.86398331881156
5 2 2 . 
5 2 3 223.7707701963195
5 2 4 333.9051135824598
5 2 5 275.4541696849889
5 2 6 147.85965251345587
5 2 7 293.5640353662835
5 3 1 178.44041968932814
5 3 2 223.7707701963195
5 3 3 . 
5 3 4 250.1020908218783
5 3 5 429.79563934593125
5 3 6 96.08968387867938
5 3 7 372.6126358105951
5 4 1 91.31297239900343
5 4 2 333.9051135824598
5 4 3 250.1020908218783
5 4 4 . 
5 4 5 250.76048521143102
5 4 6 184.1510655830907
5 4 7 193.75223139412975
5 5 1 347.1947972450412
5 5 2 275.4541696849889
5 5 3 429.79563934593125
5 5 4 250.76048521143102
5 5 5 . 
5 5 6 295.387272403613
5 5 7 2.625
5 6 1 169.4627470561217
5 6 2 147.85965251345587
5 6 3 96.08968387867938
5 6 4 184.1510655830907
5 6 5 295.387272403613
5 6 6 . 
5 6 7 331.7160080111901
5 7 1 284.8021556255669
5 7 2 293.5640353662835
5 7 3 372.6126358105951
5 7 4 193.75223139412975
5 7 5 2.625
5 7 6 331.7160080111901
5 7 7 . 
6 1 1 . 
6 1 2 288.86398331881156
6 1 3 178.44041968932814
6 1 4 91.31297239900343
6 1 5 347.1947972450412
6 1 6 169.4627470561217
6 1 7 284.8021556255669
6 2 1 288.86398331881156
6 2 2 . 
6 2 3 223.7707701963195
6 2 4 333.9051135824598
6 2 5 275.4541696849889
6 2 6 147.85965251345587
6 2 7 293.5640353662835
6 3 1 178.44041968932814
6 3 2 223.7707701963195
6 3 3 . 
6 3 4 250.1020908218783
6 3 5 429.79563934593125
6 3 6 96.08968387867938
6 3 7 372.6126358105951
6 4 1 91.31297239900343
6 4 2 333.9051135824598
6 4 3 250.1020908218783
6 4 4 . 
6 4 5 250.76048521143102
6 4 6 184.1510655830907
6 4 7 193.75223139412975
6 5 1 347.1947972450412
6 5 2 275.4541696849889
6 5 3 429.79563934593125
6 5 4 250.76048521143102
6 5 5 . 
6 5 6 295.387272403613
6 5 7 2.625
6 6 1 169.4627470561217
6 6 2 147.85965251345587
6 6 3 96.08968387867938
6 6 4 184.1510655830907
6 6 5 295.387272403613
6 6 6 . 
6 6 7 331.7160080111901
6 7 1 284.8021556255669
6 7 2 293.5640353662835
6 7 3 372.6126358105951
6 7 4 193.75223139412975
6 7 5 2.625
6 7 6 331.7160080111901
6 7 7 . ;

# 29 Travel distance
param D_2 :=
1 1 . 
1 2 472.2171110834507
1 3 259.88651369395836
1 4 155.92947123619703
1 5 493.323423323888
1 6 254.78618486880328
1 7 488.4802964296513
2 1 472.2171110834507
2 2 . 
2 3 352.23003846918
2 4 462.0097401570664
2 5 454.67460892378847
2 6 235.63743335896356
2 7 451.16959117387336
3 1 259.88651369395836
3 2 352.23003846918
3 3 . 
3 4 370.3849348988158
3 5 608.6583606589168
3 6 143.02796929272262
3 7 603.7383539249432
4 1 155.92947123619703
4 2 462.0097401570664
4 3 370.3849348988158
4 4 . 
4 5 351.63901945034485
4 6 302.7639344439823
4 7 347.0518693221519
5 1 493.323423323888
5 2 454.67460892378847
5 3 608.6583606589168
5 4 351.63901945034485
5 5 . 
5 6 476.64242362592944
5 7 5.0
6 1 254.78618486880328
6 2 235.63743335896356
6 3 143.02796929272262
6 4 302.7639344439823
6 5 476.64242362592944
6 6 . 
6 7 471.8400152594097
7 1 488.4802964296513
7 2 451.16959117387336
7 3 603.7383539249432
7 4 347.0518693221519
7 5 5.0
7 6 471.8400152594097
7 7 . ;

